10196.99,59.65,73.99
10008.79,60.77,75.38
10269.0,59.23,73.47
10394.26,58.51,72.59
8961.79,67.87,84.19
11330.21,53.68,66.59
11943.27,50.93,63.17
9542.26,63.74,79.07
11370.24,53.49,66.36
9667.25,62.91,78.05
10755.27,56.55,70.15
9988.2,60.89,75.54
10930.21,55.65,69.03
11049.23,55.05,68.28
9929.87,61.25,75.98
9652.67,63.01,78.16
11093.33,54.83,68.01
12165.22,50.0,62.02
10232.96,59.44,73.73
10295.0,59.08,73.29
